RT is False
Default write of storage_offers_DA.csv just to have a file (but constraint should be inactive)
Reading model...
...model read.
creating competitive generators file...
...competitive generators recorded.
Loading data...
.. day-ahead data read.
Compiling instance...
...instance created.
Creating Offer Mitigation (model will solve as dispatch if TRUE)...
NOTE: storage offers will not be mitigated
...storage offer mitigation file created
Converting model to MPEC...
...converted
NOTE: initial MIP solve with only storage competitive to get feasible solution
Solving...

Welcome to IBM(R) ILOG(R) CPLEX(R) Interactive Optimizer 12.9.0.0
  with Simplex, Mixed Integer & Barrier Optimizers
5725-A06 5725-A29 5724-Y48 5724-Y49 5724-Y54 5724-Y55 5655-Y21
Copyright IBM Corp. 1988, 2019.  All Rights Reserved.

Type 'help' for a list of available commands.
Type 'help' followed by a command name for more
information on commands.

CPLEX> Logfile 'cplex.log' closed.
Logfile 'C:\Users\Luke\Desktop\test919\logs\tmpf53bfj0b.cplex.log' open.
CPLEX> New value for parallel optimization mode: -1
CPLEX> New value for mixed integer optimality gap tolerance: 0.01
CPLEX> New value for integrality tolerance: 1e-09
CPLEX> New value for feasibility tolerance: 0.01
CPLEX> New value for deterministic time limit in ticks: 75000
CPLEX> Problem 'C:\Users\Luke\Desktop\test919\logs\tmp8bertcs1.pyomo.lp' read.
Read time = 0.20 sec. (14.73 ticks)
CPLEX> Problem name         : C:\Users\Luke\Desktop\test919\logs\tmp8bertcs1.pyomo.lp
Objective sense      : Maximize
Variables            :   53805  [Nneg: 1,  Box: 22000,  Free: 4464,
                                 Binary: 27340]
Objective nonzeros   :    8988
Linear constraints   :  123205  [Less: 41346,  Greater: 59096,  Equal: 22763]
  Nonzeros           :  291809
  RHS nonzeros       :   67499

Variables            : Min LB: -5000.000        Max UB: 1000000.       
Objective nonzeros   : Min   : 0.6000000        Max   : 830.6000       
Linear constraints   :
  Nonzeros           : Min   : 0.6000000        Max   : 1000000.       
  RHS nonzeros       : Min   : 0.6000000        Max   : 1000000.       
CPLEX> CPXPARAM_Parallel                                -1
CPXPARAM_Simplex_Tolerances_Feasibility          0.01
CPXPARAM_DetTimeLimit                            75000
CPXPARAM_MIP_Tolerances_MIPGap                   0.01
CPXPARAM_MIP_Tolerances_Integrality              1.0000000000000001e-09
Tried aggregator 3 times.
MIP Presolve eliminated 88606 rows and 18911 columns.
MIP Presolve added 3409 rows and 0 columns.
MIP Presolve modified 24921 coefficients.
Aggregator did 13004 substitutions.
Reduced MIP has 25004 rows, 21339 columns, and 71344 nonzeros.
Reduced MIP has 8426 binaries, 0 generals, 0 SOSs, and 0 indicators.
Presolve time = 0.23 sec. (176.28 ticks)
Probing fixed 371 vars, tightened 2797 bounds.
Probing time = 1.30 sec. (884.24 ticks)
Tried aggregator 2 times.
MIP Presolve eliminated 836 rows and 742 columns.
MIP Presolve modified 2200 coefficients.
Aggregator did 42 substitutions.
Reduced MIP has 24126 rows, 20555 columns, and 68804 nonzeros.
Reduced MIP has 8055 binaries, 0 generals, 0 SOSs, and 0 indicators.
Presolve time = 0.09 sec. (69.87 ticks)
Probing time = 0.03 sec. (16.17 ticks)
Clique table members: 6348.
MIP emphasis: balance optimality and feasibility.
MIP search method: dynamic search.
Parallel mode: opportunistic, using up to 24 threads.
Root relaxation solution time = 0.47 sec. (569.02 ticks)

        Nodes                                         Cuts/
   Node  Left     Objective  IInf  Best Integer    Best Bound    ItCnt     Gap

      0     0     7536.5314   762                   7536.5314     7166         
      0     0     7536.5314    32                    Cuts: 19     7176         
      0     0     7536.5314    28                    Cuts: 18     7183         
      0     0     7536.5314    28                 Impl Bds: 1     7183         
      0    11    infeasible                         7492.5804     7289         
Elapsed time = 7.75 sec. (5621.03 ticks, tree = 0.02 MB, solutions = 0)
    421   199     7222.1434     4                   7438.3154    13503         
*   471    59      integral     0     6992.3542     7438.3154     8264    6.38%
*   489   147      integral     0     7254.3013     7438.3154    11555    2.54%
    817    53     7365.7635    11     7254.3013     7376.2814    21479    1.68%
   1171   231     7327.7729     3     7254.3013     7365.7635    22145    1.54%
   1422   241     7313.7531    10     7254.3013     7365.7635    22214    1.54%
   1671   317     7266.3573     2     7254.3013     7365.7635    22601    1.54%
   1867   476     7298.9695     2     7254.3013     7365.7635    23269    1.54%
   2003   455     7325.0646     3     7254.3013     7365.7635    23161    1.54%
   2144   512     7325.0646     3     7254.3013     7365.7635    23452    1.54%
   2284   567        cutoff           7254.3013     7365.7635    30281    1.54%
   2816   694     7274.8352     2     7254.3013     7365.7635    38031    1.54%
Elapsed time = 13.86 sec. (8730.75 ticks, tree = 10.71 MB, solutions = 4)
   3342   746     7274.5982     1     7254.3013     7365.7635    38227    1.54%
   3981   901     7274.5982     3     7254.3013     7365.7635    39807    1.54%
   4419  1114     7254.3917     4     7254.3013     7365.7635    40675    1.54%
*  4445  1069      integral     0     7254.3917     7365.7635    40679    1.54%
*  4647  1172      integral     0     7307.6323     7365.7635    41052    0.80%
   4722  1172     7299.2065     2     7307.6323     7365.7635    41258    0.80%
   4930  1200        cutoff           7307.6323     7365.7635    41045    0.80%
   5105  1201        cutoff           7307.6323     7365.7635    41424    0.80%

Implied bound cuts applied:  6
Flow cuts applied:  173
Gomory fractional cuts applied:  12

Root node processing (before b&c):
  Real time             =    7.36 sec. (5605.62 ticks)
Parallel b&c, 24 threads:
  Real time             =   12.83 sec. (9503.78 ticks)
  Sync time (average)   =    0.38 sec.
  Wait time (average)   =    0.00 sec.
                          ------------
Total (root+branch&cut) =   20.19 sec. (15109.40 ticks)

Solution pool: 6 solutions saved.

MIP - Integer optimal, tolerance (0.01/1e-06):  Objective =  7.3076322508e+03
Current MIP best bound =  7.3657634696e+03 (gap = 58.1312, 0.80%)
Solution time =   20.20 sec.  Iterations = 42137  Nodes = 5126 (639)
Deterministic time = 15109.55 ticks  (747.89 ticks/sec)

CPLEX> Incumbent solution written to file 'C:\Users\Luke\Desktop\test919\logs\tmp16ip3bjx.cplex.sol'.
CPLEX> NOTE: no warmstart specified for MIP iteration, default behavior is true
NOTE: resolving with all competitive generators using storage-only solution to warmstart
Solving...

Welcome to IBM(R) ILOG(R) CPLEX(R) Interactive Optimizer 12.9.0.0
  with Simplex, Mixed Integer & Barrier Optimizers
5725-A06 5725-A29 5724-Y48 5724-Y49 5724-Y54 5724-Y55 5655-Y21
Copyright IBM Corp. 1988, 2019.  All Rights Reserved.

Type 'help' for a list of available commands.
Type 'help' followed by a command name for more
information on commands.

CPLEX> Logfile 'cplex.log' closed.
Logfile 'C:\Users\Luke\Desktop\test919\logs\tmpss_j253j.cplex.log' open.
CPLEX> New value for parallel optimization mode: -1
CPLEX> New value for mixed integer optimality gap tolerance: 0.01
CPLEX> New value for integrality tolerance: 1e-09
CPLEX> New value for feasibility tolerance: 0.01
CPLEX> New value for deterministic time limit in ticks: 75000
CPLEX> Problem 'C:\Users\Luke\Desktop\test919\logs\tmp20evo8kv.pyomo.lp' read.
Read time = 0.20 sec. (14.75 ticks)
CPLEX> MIP start file 'C:\Users\Luke\Desktop\test919\logs\tmp14i4pkgj.cplex.mst' read.
CPLEX> Problem name         : C:\Users\Luke\Desktop\test919\logs\tmp20evo8kv.pyomo.lp
Objective sense      : Maximize
Variables            :   54525  [Nneg: 1,  Box: 22720,  Free: 4464,
                                 Binary: 27340]
Objective nonzeros   :    9708
Linear constraints   :  123205  [Less: 41346,  Greater: 59096,  Equal: 22763]
  Nonzeros           :  291809
  RHS nonzeros       :   67499

Variables            : Min LB: -5000.000        Max UB: 1000000.       
Objective nonzeros   : Min   : 0.6000000        Max   : 830.6000       
Linear constraints   :
  Nonzeros           : Min   : 0.6000000        Max   : 1000000.       
  RHS nonzeros       : Min   : 0.6000000        Max   : 1000000.       
CPLEX> CPXPARAM_Parallel                                -1
CPXPARAM_Simplex_Tolerances_Feasibility          0.01
CPXPARAM_DetTimeLimit                            75000
CPXPARAM_MIP_Tolerances_MIPGap                   0.01
CPXPARAM_MIP_Tolerances_Integrality              1.0000000000000001e-09
Warning:  No solution found from 1 MIP starts.
Retaining values of one MIP start for possible repair.
Tried aggregator 3 times.
MIP Presolve eliminated 88606 rows and 19631 columns.
MIP Presolve added 3409 rows and 0 columns.
MIP Presolve modified 24921 coefficients.
Aggregator did 13004 substitutions.
Reduced MIP has 25004 rows, 21339 columns, and 71344 nonzeros.
Reduced MIP has 8426 binaries, 0 generals, 0 SOSs, and 0 indicators.
Presolve time = 0.25 sec. (176.65 ticks)
Probing fixed 371 vars, tightened 2797 bounds.
Probing time = 1.27 sec. (884.24 ticks)
Tried aggregator 2 times.
MIP Presolve eliminated 836 rows and 742 columns.
MIP Presolve modified 2200 coefficients.
Aggregator did 42 substitutions.
Reduced MIP has 24126 rows, 20555 columns, and 68804 nonzeros.
Reduced MIP has 8055 binaries, 0 generals, 0 SOSs, and 0 indicators.
Presolve time = 0.09 sec. (69.87 ticks)
Probing time = 0.03 sec. (16.17 ticks)
Clique table members: 6348.
MIP emphasis: balance optimality and feasibility.
MIP search method: dynamic search.
Parallel mode: opportunistic, using up to 24 threads.
Root relaxation solution time = 0.48 sec. (569.02 ticks)

        Nodes                                         Cuts/
   Node  Left     Objective  IInf  Best Integer    Best Bound    ItCnt     Gap

      0     0     7536.5314   762                   7536.5314     7166         
      0     0     7536.5314    32                    Cuts: 19     7176         
      0     0     7536.5314    28                    Cuts: 18     7183         
      0     0     7536.5314    28                 Impl Bds: 1     7183         
Repair heuristic found nothing.
      0    11    infeasible                         7492.5804     7289         
Elapsed time = 8.23 sec. (5771.62 ticks, tree = 0.02 MB, solutions = 0)
    349    46    infeasible                         7438.3154     8853         
*   478   188      integral     0     6992.3542     7438.3154    11630    6.38%
    744   132     7258.0020    13     7084.8992     7393.8003    13454    4.36%
   1031   217     7147.8759     4     7084.8992     7393.8003    17049    4.36%
   1250   243     7148.7620     3     7084.8992     7393.8003    17164    4.36%
   1539   321     7297.2473     1     7084.8992     7393.8003    17545    4.36%
   1750   365     7207.4257     1     7084.8992     7393.8003    17763    4.36%
   1896   448        cutoff           7084.8992     7393.8003    18132    4.36%
   2017   475        cutoff           7084.8992     7393.8003    18241    4.36%
   2121   476     7272.2411     1     7084.8992     7393.8003    18246    4.36%
   2581   508        cutoff           7084.8992     7393.8003    18450    4.36%
Elapsed time = 14.05 sec. (8877.37 ticks, tree = 2.69 MB, solutions = 4)
   3024   607     7252.4603     1     7084.8992     7393.8003    19044    4.36%
   3378   648     7272.2411     1     7084.8992     7393.8003    19371    4.36%
   3646   683        cutoff           7084.8992     7393.8003    19769    4.36%
   3887   695     7309.4874     1     7084.8992     7393.8003    19916    4.36%
   4102   700        cutoff           7084.8992     7393.8003    19958    4.36%
   4360   734     7309.7245     1     7084.8992     7393.8003    20137    4.36%
   4619   856        cutoff           7084.8992     7393.8003    20812    4.36%
   4837   871        cutoff           7084.8992     7393.8003    20880    4.36%
   4998   878     7359.9539     1     7084.8992     7393.8003    20916    4.36%
   5152   964     7234.3605     1     7084.8992     7393.8003    21374    4.36%
Elapsed time = 24.84 sec. (18453.99 ticks, tree = 4.76 MB, solutions = 4)
   5294  1023        cutoff           7084.8992     7393.8003    21725    4.36%
   5430  1012        cutoff           7084.8992     7393.8003    21661    4.36%
   5571  1050     7309.4874     1     7084.8992     7393.8003    22007    4.36%
   5712  1050     7309.4874     1     7084.8992     7393.8003    21969    4.36%
   5840  1054        cutoff           7084.8992     7393.8003    22053    4.36%
   5957  1061     7289.7066     1     7084.8992     7393.8003    22265    4.36%
   6080  1070        cutoff           7084.8992     7393.8003    22380    4.36%
   6193  1067        cutoff           7084.8992     7393.8003    22355    4.36%
   6318  1071        cutoff           7084.8992     7393.8003    22418    4.36%
   6422  1076        cutoff           7084.8992     7393.8003    22517    4.36%
Elapsed time = 34.22 sec. (28034.75 ticks, tree = 5.45 MB, solutions = 4)
   6519  1096        cutoff           7084.8992     7393.8003    22828    4.36%
   6647  1087     7272.2411     1     7084.8992     7393.8003    22706    4.36%
   6746  1100     7309.4874     3     7084.8992     7393.8003    22873    4.36%
   6860  1123        cutoff           7084.8992     7393.8003    23142    4.36%
   6992  1113     7252.4603     3     7084.8992     7393.8003    23039    4.36%
   7109  1148     7284.8269     4     7084.8992     7393.8003    23381    4.36%
   7239  1184     7272.0900     2     7084.8992     7393.8003    23550    4.36%
   7385  1184     7312.4788     1     7084.8992     7393.8003    23555    4.36%
   7480  1233     7309.4874     1     7084.8992     7393.8003    23831    4.36%
   7562  1250     7312.4788     1     7084.8992     7393.8003    23934    4.36%
Elapsed time = 43.44 sec. (37649.99 ticks, tree = 6.41 MB, solutions = 4)
   7661  1261     7252.4603     1     7084.8992     7393.8003    23981    4.36%
   7754  1304        cutoff           7084.8992     7393.8003    24334    4.36%
   7855  1305     7252.4603     1     7084.8992     7393.8003    24337    4.36%
   7948  1342     7252.4603     1     7084.8992     7393.8003    24616    4.36%
   8036  1349        cutoff           7084.8992     7393.8003    24768    4.36%
   8118  1343     7284.8269     2     7084.8992     7393.8003    24646    4.36%
   8221  1351     7284.8269     2     7084.8992     7393.8003    24787    4.36%
   8312  1393        cutoff           7084.8992     7393.8003    25050    4.36%
   8392  1393        cutoff           7084.8992     7393.8003    25085    4.36%
   8464  1394     7234.3605     1     7084.8992     7393.8003    25151    4.36%
Elapsed time = 52.48 sec. (47296.06 ticks, tree = 7.04 MB, solutions = 4)
   8555  1407     7207.4257     1     7084.8992     7393.8003    25246    4.36%
   8641  1409        cutoff           7084.8992     7393.8003    25329    4.36%
   8711  1410     7284.8269     2     7084.8992     7393.8003    25404    4.36%
   8798  1409        cutoff           7084.8992     7393.8003    25441    4.36%
   8913  1411     7309.4874     1     7084.8992     7393.8003    25495    4.36%
   9025  1410     7309.4874     1     7084.8992     7393.8003    25421    4.36%
   9133  1412     7312.4788     1     7084.8992     7393.8003    25486    4.36%
   9255  1412     7234.3605     1     7084.8992     7393.8003    25562    4.36%
   9367  1431     7103.9868     3     7084.8992     7393.8003    26301    4.36%
   9473  1438        cutoff           7084.8992     7393.8003    26344    4.36%
Elapsed time = 63.34 sec. (56910.89 ticks, tree = 7.57 MB, solutions = 4)
   9579  1417        cutoff           7084.8992     7393.8003    26183    4.36%
   9648  1417        cutoff           7084.8992     7393.8003    26177    4.36%
   9726  1418        cutoff           7084.8992     7393.8003    26217    4.36%
   9760  1418     7309.4874     1     7084.8992     7393.8003    26219    4.36%
   9776  1438     7312.4788     1     7084.8992     7393.8003    26382    4.36%
   9786  1438     7312.4788     1     7084.8992     7393.8003    26383    4.36%
   9789  1505    infeasible           7084.8992     7327.4178    32288    3.42%
  11177    81     7105.4782    14     7084.8992     7283.5156    33213    2.80%
  12945   955     7278.7350     9     7084.8992     7281.8942    39936    2.78%
  17190  2562     7148.5732     9     7084.8992     7281.7547    48478    2.78%
Elapsed time = 78.69 sec. (68597.36 ticks, tree = 10.64 MB, solutions = 4)
  21466  6853     7094.0427    11     7084.8992     7280.6418    67278    2.76%
  24745  9106     7188.8921    14     7084.8992     7280.6418    77893    2.76%
  27487  9918     7087.0472     1     7084.8992     7280.6418    81577    2.76%
  30093 12720     7208.0367     8     7084.8992     7280.5305    95471    2.76%
  32229 13899        cutoff           7084.8992     7280.5305   101230    2.76%
  33995 14680     7189.0517    10     7084.8992     7280.2321   105214    2.76%

GUB cover cuts applied:  2
Implied bound cuts applied:  22
Flow cuts applied:  24
Mixed integer rounding cuts applied:  10
Zero-half cuts applied:  1
Gomory fractional cuts applied:  9

Root node processing (before b&c):
  Real time             =    7.81 sec. (5753.85 ticks)
Parallel b&c, 24 threads:
  Real time             =   82.00 sec. (69279.50 ticks)
  Sync time (average)   =    1.36 sec.
  Wait time (average)   =    0.04 sec.
                          ------------
Total (root+branch&cut) =   89.81 sec. (75033.35 ticks)

Solution pool: 4 solutions saved.

MIP - Deterministic time limit exceeded, integer feasible:  Objective =  7.0848991527e+03
Current MIP best bound =  7.2802320997e+03 (gap = 195.333, 2.76%)
Solution time =   89.81 sec.  Iterations = 109549  Nodes = 34992 (15528)
Deterministic time = 75033.50 ticks  (835.44 ticks/sec)

CPLEX> Incumbent solution written to file 'C:\Users\Luke\Desktop\test919\logs\tmpbcz_cqd1.cplex.sol'.
CPLEX> Exporting results... 
